(set-logic QF_S)
(declare-fun V22 () String )
(declare-fun V10 () String )
(declare-fun V17 () String )
(declare-fun V16 () String )
(declare-fun V7 () String )
(declare-fun V41 () String )
(declare-fun V13 () String )
(declare-fun V34 () String )
(declare-fun V5 () String )
(declare-fun V31 () String )
(declare-fun V50 () String )
(declare-fun V37 () String )
(declare-fun V2 () String )
(declare-fun V54 () String )
(declare-fun V55 () String )
(declare-fun V28 () String )
(declare-fun V33 () String )
(declare-fun V53 () String )
(declare-fun V30 () String )
(declare-fun V3 () String )
(declare-fun V19 () String )
(declare-fun V0 () String )
(declare-fun V39 () String )
(declare-fun V23 () String )
(declare-fun V21 () String )
(declare-fun V43 () String )
(declare-fun V14 () String )
(declare-fun V52 () String )
(declare-fun V44 () String )
(declare-fun V40 () String )
(declare-fun V15 () String )
(declare-fun V36 () String )
(declare-fun V51 () String )
(declare-fun V26 () String )
(declare-fun V24 () String )
(declare-fun V8 () String )
(declare-fun V12 () String )
(declare-fun V18 () String )
(declare-fun V9 () String )
(declare-fun V6 () String )
(declare-fun V42 () String )
(declare-fun V25 () String )
(declare-fun V35 () String )
(declare-fun V32 () String )
(declare-fun V27 () String )
(declare-fun V4 () String )
(declare-fun V11 () String )
(declare-fun V49 () String )
(declare-fun V20 () String )
(declare-fun V38 () String )
(declare-fun V1 () String )
(declare-fun V29 () String )
(assert (= "" V32 ) )
(assert (= "," V19 ) )
(assert (= "/" V0 ) )
(assert (= ":" V24 ) )
(assert (= "Y" V5 ) )
(assert (= "Z" V16 ) )
(assert (= V2 (str.++ (str.++ V27 V12 ) V28 ) ) )
(assert (= V2 (str.++ (str.++ V41 V42 ) V28 ) ) )
(assert (= V2 (str.++ (str.++ V6 V7 ) V8 ) ) )
(assert (= V2 (str.++ (str.++ V6 V17 ) V18 ) ) )
(assert (= V27 V6 ) )
(assert (= V41 V6 ) )
(assert (= V8 V18 ) )
(assert (= V13 V7 ) )
(assert (= V53 (str.++ "z" V17 ) ) )
(assert (= V53 (str.++ (str.++ V51 "z" ) V52 ) ) )
(assert (= V12 V42 ) )
(assert (= V12 (str.++ (str.++ V39 V15 ) V40 ) ) )
(assert (= V12 (str.++ (str.++ V9 V10 ) V11 ) ) )
(assert (= V7 V17 ) )
(assert (= V17 (str.++ (str.++ V51 "Z" ) V52 ) ) )
(assert (= V39 V9 ) )
(assert (= V14 (str.++ (str.++ V49 "y" ) V50 ) ) )
(assert (= V10 (str.++ (str.++ V49 "Y" ) V50 ) ) )
(assert (= V30 (str.++ (str.++ V31 V32 ) V33 ) ) )
(assert (= V30 (str.++ (str.++ V54 ":" ) V55 ) ) )
(assert (= V21 (str.++ (str.++ V34 V35 ) V36 ) ) )
(assert (= V4 (str.++ (str.++ V43 "/" ) V44 ) ) )
(assert (= V4 (str.++ (str.++ V1 V2 ) V3 ) ) )
(assert (= V23 (str.++ (str.++ V37 "," ) V38 ) ) )
(assert (= V23 (str.++ (str.++ V29 V30 ) V26 ) ) )
(assert (= V23 (str.++ (str.++ V20 V21 ) V22 ) ) )
(assert (= V23 (str.++ (str.++ V25 V4 ) V26 ) ) )
(assert (= (str.++ V27 V12 ) (str.++ V41 V42 ) ) )
(assert (= (str.++ V12 V28 ) (str.++ V42 V28 ) ) )
(assert (= (str.++ V7 V8 ) (str.++ V17 V18 ) ) )
(assert (= (str.++ (str.++ V13 V14 ) V15 ) "localhost" ) )
( check-sat )
